32	4
18	12	11	17
0	0	0	0	0	3	2	5	31
5	3	5	2	1	3	3	10	12
4	1	5	1	6	2	4	6
4	1	3	1	4	3	7	13	30
7	1	1	1	1	2	7	13
4	1	1	1	1	3	8	15	23
7	1	1	2	1	2	8	15
10	2	1	1	7	2	9	21
1	12	1	5	4	1	11
6	1	1	1	3	4	15	21	27	30
2	4	3	1	1	2	14	28
8	2	6	1	6	4	16	27	28	30
8	2	1	1	1	3	15	16	27
6	7	1	2	2	3	16	27	29
6	1	3	1	4	2	17	28
8	4	1	1	7	1	17
4	18	3	1	1	1	18
7	1	1	1	8	3	19	25	26
10	5	1	7	1	1	20
9	1	1	1	9	1	22
2	1	1	1	1	1	22
2	1	11	4	6	1	24
5	4	1	1	1	1	29
2	1	1	11	9	1	32
3	6	4	1	1	1	32
9	1	1	4	1	1	32
8	16	3	1	5	1	32
2	4	3	1	2	1	32
10	1	1	3	1	1	32
1	3	4	1	1	1	32
2	2	2	6	6	1	32
0	0	0	0	0	0
